\ LP format - for model browsing. Use MPS format to capture full model detail.
Maximize
  10 x_1 + x_2 + 10 x_3 + 5 x_4 + 6 x_5 + 5 x_6 + 4 x_7 + 4 x_8 + 5 x_9
   + 5 x_10 + x_11 + 5 x_12 + 2 x_13 + 5 x_14 + 8 x_15
Subject To
 C_1: 2 x_2 + 6 x_3 + 8 x_5 + 10 x_8 + 3 x_9 + 10 x_10 + 9 x_12 + 5 x_14
   + 4 x_15 <= 28
 C_2: 7 x_1 + 10 x_4 + 10 x_5 + 2 x_8 + 9 x_10 + 4 x_11 + 10 x_12 + 2 x_14
   + 8 x_15 <= 31
 C_3: 5 x_1 + 9 x_2 + 9 x_3 + 7 x_7 + x_9 + 4 x_10 + 7 x_11 + 6 x_12
   + 6 x_14 + 9 x_15 <= 31
 C_4: 3 x_1 + x_2 + 4 x_3 + 6 x_4 + 6 x_6 + 10 x_7 + 8 x_8 + 3 x_10
   + 10 x_13 <= 25
 C_5: 9 x_2 + 6 x_3 + 3 x_4 + 8 x_6 + 2 x_9 + 5 x_10 + 9 x_13 + 6 x_14
   + 3 x_15 <= 25
 C_6: 9 x_5 + x_6 + x_7 + 4 x_8 + 6 x_10 + 7 x_13 + 5 x_14 + 7 x_15 <= 20
 C_7: 5 x_2 + 7 x_3 + x_5 + 2 x_6 + 8 x_7 + 9 x_8 + 7 x_9 + 3 x_11 + 2 x_12
   + 8 x_13 + 9 x_15 <= 30
 C_8: 5 x_2 + 3 x_3 + 7 x_5 + 8 x_7 + 8 x_9 + 5 x_11 + 8 x_14 + 2 x_15
   <= 23
 C_9: 3 x_2 + 2 x_4 + 6 x_6 + 6 x_8 + 5 x_15 <= 11
 C_10: 5 x_4 + 4 x_5 + 6 x_6 + 2 x_9 + 9 x_10 + 10 x_15 <= 18
Bounds
Binaries
 x_1 x_2 x_3 x_4 x_5 x_6 x_7 x_8 x_9 x_10 x_11 x_12 x_13 x_14 x_15
End
